Geographic Exponential Decay
40 313 185 159 56 36 83 106 77 18 218 205 42 299 58 102 189 195 304 143 287 39 128 50 72 281 285 3 254 297 181 173 318 207 99 275 4 100 16 131 113
p edge 320 323
e 0 240 1.0
e 1 223 2.0
e 1 0 2.0
e 2 185 94.0
e 2 313 13.0
e 2 212 49.0
e 2 1 33.0
e 3 242 44.0
e 3 297 72.0
e 3 211 50.0
e 3 150 67.0
e 3 60 77.0
e 4 14 79.0
e 4 39 43.0
e 4 199 85.0
e 4 239 36.0
e 4 288 46.0
e 5 168 1.0
e 5 2 32.0
e 6 190 2.0
e 6 5 4.0
e 7 180 46.0
e 7 8 21.0
e 7 49 17.0
e 7 6 45.0
e 9 26 8.0
e 9 7 38.0
e 10 75 10.0
e 10 9 10.0
e 11 52 17.0
e 11 228 6.0
e 11 10 4.0
e 12 42 37.0
e 13 106 20.0
e 13 11 13.0
e 15 45 20.0
e 15 178 20.0
e 15 13 2.0
e 16 53 17.0
e 16 175 69.0
e 16 77 79.0
e 16 169 26.0
e 16 301 20.0
e 16 15 88.0
e 17 243 1.0
e 17 16 57.0
e 18 46 1.0
e 18 270 94.0
e 18 23 77.0
e 18 19 37.0
e 18 283 41.0
e 18 17 59.0
e 20 21 5.0
e 20 18 8.0
e 22 313 9.0
e 24 74 1.0
e 24 20 1.0
e 25 32 12.0
e 25 24 2.0
e 27 183 1.0
e 27 25 1.0
e 28 102 47.0
e 29 314 4.0
e 29 27 1.0
e 30 133 5.0
e 30 29 2.0
e 31 91 4.0
e 31 30 1.0
e 33 34 1.0
e 33 31 1.0
e 35 227 8.0
e 35 33 3.0
e 36 161 84.0
e 36 213 41.0
e 36 67 44.0
e 36 153 44.0
e 36 218 79.0
e 37 230 3.0
e 37 35 11.0
e 38 205 68.0
e 39 147 21.0
e 39 129 36.0
e 39 54 24.0
e 39 216 75.0
e 40 126 2.0
e 40 37 5.0
e 41 238 1.0
e 41 40 2.0
e 42 200 83.0
e 42 218 92.0
e 42 224 61.0
e 42 155 15.0
e 43 205 17.0
e 44 50 12.0
e 47 134 6.0
e 47 41 5.0
e 48 50 82.0
e 50 185 16.0
e 50 252 66.0
e 50 110 14.0
e 51 189 6.0
e 55 308 8.0
e 55 47 2.0
e 56 62 58.0
e 56 57 40.0
e 56 311 58.0
e 56 58 28.0
e 56 279 85.0
e 56 55 68.0
e 58 59 82.0
e 58 214 69.0
e 58 61 3.0
e 58 284 61.0
e 63 241 1.0
e 63 56 55.0
e 64 69 1.0
e 64 63 8.0
e 65 160 3.0
e 65 64 12.0
e 66 257 11.0
e 66 65 1.0
e 68 209 1.0
e 68 66 1.0
e 70 71 8.0
e 70 68 6.0
e 72 205 34.0
e 72 120 74.0
e 72 87 95.0
e 72 191 3.0
e 72 113 65.0
e 73 257 8.0
e 76 268 3.0
e 76 70 5.0
e 77 78 15.0
e 77 246 51.0
e 77 79 24.0
e 77 111 85.0
e 80 285 21.0
e 81 82 2.0
e 81 76 1.0
e 83 182 58.0
e 83 131 85.0
e 83 84 32.0
e 83 117 18.0
e 83 273 86.0
e 85 215 9.0
e 85 81 2.0
e 86 88 1.0
e 86 85 11.0
e 89 90 17.0
e 89 271 7.0
e 89 86 16.0
e 92 95 1.0
e 92 89 19.0
e 93 94 1.0
e 93 92 2.0
e 96 97 24.0
e 96 98 20.0
e 96 93 6.0
e 99 187 89.0
e 99 104 20.0
e 99 100 80.0
e 99 101 96.0
e 99 225 31.0
e 100 124 1.0
e 100 295 67.0
e 100 102 31.0
e 100 103 16.0
e 102 105 47.0
e 102 258 76.0
e 102 106 71.0
e 106 107 31.0
e 106 108 11.0
e 106 144 94.0
e 109 253 1.0
e 109 96 5.0
e 112 113 97.0
e 113 114 58.0
e 113 115 14.0
e 113 201 56.0
e 116 118 2.0
e 116 109 2.0
e 119 259 3.0
e 119 116 1.0
e 120 216 19.0
e 121 159 66.0
e 121 122 23.0
e 121 123 20.0
e 121 119 25.0
e 125 254 14.0
e 125 121 32.0
e 127 202 5.0
e 127 125 1.0
e 128 157 85.0
e 128 226 7.0
e 128 130 50.0
e 128 131 52.0
e 128 132 84.0
e 130 262 6.0
e 131 218 47.0
e 131 210 92.0
e 131 290 93.0
e 135 136 4.0
e 135 127 2.0
e 137 316 6.0
e 138 248 1.0
e 138 135 2.0
e 139 269 1.0
e 139 138 2.0
e 140 141 8.0
e 140 188 22.0
e 140 139 21.0
e 142 143 63.0
e 143 145 12.0
e 143 186 56.0
e 143 146 21.0
e 143 147 99.0
e 146 260 13.0
e 148 291 8.0
e 148 140 11.0
e 149 263 1.0
e 149 148 5.0
e 151 152 1.0
e 151 149 4.0
e 153 154 12.0
e 156 158 3.0
e 156 151 2.0
e 159 162 98.0
e 159 163 98.0
e 159 316 68.0
e 159 244 16.0
e 164 165 2.0
e 164 156 1.0
e 166 260 18.0
e 167 285 31.0
e 170 278 1.0
e 170 289 20.0
e 170 164 17.0
e 171 220 3.0
e 171 170 14.0
e 172 204 5.0
e 172 171 1.0
e 173 181 89.0
e 173 174 38.0
e 173 176 9.0
e 173 229 88.0
e 173 177 16.0
e 179 287 46.0
e 181 184 47.0
e 181 185 74.0
e 181 186 5.0
e 181 189 32.0
e 185 189 43.0
e 185 192 97.0
e 189 272 56.0
e 189 206 70.0
e 193 194 12.0
e 193 172 1.0
e 195 196 68.0
e 195 216 43.0
e 195 197 56.0
e 195 221 44.0
e 195 198 39.0
e 203 217 10.0
e 203 193 1.0
e 205 207 80.0
e 205 274 28.0
e 207 208 18.0
e 207 233 71.0
e 207 218 98.0
e 207 219 25.0
e 218 222 72.0
e 231 249 3.0
e 231 203 12.0
e 232 234 8.0
e 232 231 1.0
e 234 235 2.0
e 234 236 46.0
e 237 312 24.0
e 245 246 1.0
e 247 250 8.0
e 247 232 1.0
e 251 254 77.0
e 254 255 25.0
e 254 256 32.0
e 254 261 74.0
e 264 317 1.0
e 264 247 1.0
e 265 266 11.0
e 265 264 5.0
e 266 267 4.0
e 267 282 7.0
e 270 275 67.0
e 275 276 92.0
e 275 277 60.0
e 275 280 51.0
e 275 281 80.0
e 276 302 8.0
e 281 285 63.0
e 281 286 22.0
e 281 287 56.0
e 281 292 2.0
e 285 286 32.0
e 285 287 31.0
e 287 293 48.0
e 287 294 1.0
e 296 297 52.0
e 296 298 45.0
e 296 299 100.0
e 297 299 22.0
e 297 300 39.0
e 297 303 57.0
e 299 304 48.0
e 299 305 6.0
e 299 306 62.0
e 304 307 50.0
e 304 309 84.0
e 304 310 41.0
e 304 312 71.0
e 307 313 46.0
e 313 315 29.0
e 313 318 27.0
e 318 319 71.0
